certificates/rado_a15_c72_N37.cnf
c Rad2 upper bound instance: x1 + 15*x2 - x3 = 72, interval [1,37]
p cnf 37 184
1 4 5 0
-1 -4 -5 0
1 6 19 0
-1 -6 -19 0
1 7 34 0
-1 -7 -34 0
2 5 0
-2 -5 0
2 6 20 0
-2 -6 -20 0
2 7 35 0
-2 -7 -35 0
3 5 6 0
-3 -5 -6 0
3 6 21 0
-3 -6 -21 0
3 7 36 0
-3 -7 -36 0
4 5 7 0
-4 -5 -7 0
4 6 22 0
-4 -6 -22 0
4 7 37 0
-4 -7 -37 0
5 8 0
-5 -8 0
5 6 23 0
-5 -6 -23 0
5 6 9 0
-5 -6 -9 0
6 24 0
-6 -24 0
5 7 10 0
-5 -7 -10 0
6 7 25 0
-6 -7 -25 0
5 8 11 0
-5 -8 -11 0
6 8 26 0
-6 -8 -26 0
5 9 12 0
-5 -9 -12 0
6 9 27 0
-6 -9 -27 0
5 10 13 0
-5 -10 -13 0
6 10 28 0
-6 -10 -28 0
5 11 14 0
-5 -11 -14 0
6 11 29 0
-6 -11 -29 0
5 12 15 0
-5 -12 -15 0
6 12 30 0
-6 -12 -30 0
1 4 13 0
-1 -4 -13 0
5 13 16 0
-5 -13 -16 0
6 13 31 0
-6 -13 -31 0
2 4 14 0
-2 -4 -14 0
5 14 17 0
-5 -14 -17 0
6 14 32 0
-6 -14 -32 0
3 4 15 0
-3 -4 -15 0
5 15 18 0
-5 -15 -18 0
6 15 33 0
-6 -15 -33 0
4 16 0
-4 -16 0
5 16 19 0
-5 -16 -19 0
6 16 34 0
-6 -16 -34 0
4 5 17 0
-4 -5 -17 0
5 17 20 0
-5 -17 -20 0
6 17 35 0
-6 -17 -35 0
4 6 18 0
-4 -6 -18 0
5 18 21 0
-5 -18 -21 0
6 18 36 0
-6 -18 -36 0
4 7 19 0
-4 -7 -19 0
5 19 22 0
-5 -19 -22 0
6 19 37 0
-6 -19 -37 0
4 8 20 0
-4 -8 -20 0
5 20 23 0
-5 -20 -23 0
4 9 21 0
-4 -9 -21 0
5 21 24 0
-5 -21 -24 0
4 10 22 0
-4 -10 -22 0
5 22 25 0
-5 -22 -25 0
4 11 23 0
-4 -11 -23 0
5 23 26 0
-5 -23 -26 0
4 12 24 0
-4 -12 -24 0
5 24 27 0
-5 -24 -27 0
4 13 25 0
-4 -13 -25 0
5 25 28 0
-5 -25 -28 0
4 14 26 0
-4 -14 -26 0
5 26 29 0
-5 -26 -29 0
4 15 27 0
-4 -15 -27 0
5 27 30 0
-5 -27 -30 0
1 3 28 0
-1 -3 -28 0
4 16 28 0
-4 -16 -28 0
5 28 31 0
-5 -28 -31 0
2 3 29 0
-2 -3 -29 0
4 17 29 0
-4 -17 -29 0
5 29 32 0
-5 -29 -32 0
3 30 0
-3 -30 0
4 18 30 0
-4 -18 -30 0
5 30 33 0
-5 -30 -33 0
3 4 31 0
-3 -4 -31 0
4 19 31 0
-4 -19 -31 0
5 31 34 0
-5 -31 -34 0
3 5 32 0
-3 -5 -32 0
4 20 32 0
-4 -20 -32 0
5 32 35 0
-5 -32 -35 0
3 6 33 0
-3 -6 -33 0
4 21 33 0
-4 -21 -33 0
5 33 36 0
-5 -33 -36 0
3 7 34 0
-3 -7 -34 0
4 22 34 0
-4 -22 -34 0
5 34 37 0
-5 -34 -37 0
3 8 35 0
-3 -8 -35 0
4 23 35 0
-4 -23 -35 0
3 9 36 0
-3 -9 -36 0
4 24 36 0
-4 -24 -36 0
3 10 37 0
-3 -10 -37 0
4 25 37 0
-4 -25 -37 0
