certificates/rado_a15_c72_N37.drat
5 -35 -37 0
-4 -5 -37 0
-5 -37 0
d -4 -5 -37 0
4 -36 5 0
-4 -37 0
-37 0
4 5 0
d 4 -36 5 0
5 0
-2 0
-8 0
-25 -4 0
-4 0
7 0
14 0
16 0
20 0
25 0
-10 0
-17 0
-11 0
-19 0
-13 0
-23 0
-28 0
-22 0
-6 0
0
